c is-sat
p cnf 10 68
-7 -8 4 0
-8 1 -5 0
9 -6 -1 0
-8 -1 -2 0
1 -9 -8 0
-4 3 9 0
-2 -8 -9 0
-5 -6 -1 0
-3 8 -9 0
-1 -8 -3 0
-5 -2 -7 0
8 6 1 0
-2 -1 -10 0
-4 -6 -10 0
1 -5 8 0
-10 9 -4 0
-3 -8 -4 0
4 2 -10 0
-5 9 -7 0
1 3 -4 0
-10 7 -9 0
8 -2 -7 0
-10 4 8 0
-10 -2 -8 0
-6 -3 1 0
5 -6 -7 0
-5 -8 -4 0
-7 -1 -3 0
-4 -5 3 0
-10 -6 9 0
-7 -10 -2 0
-6 2 4 0
5 -9 -3 0
-8 -4 -9 0
3 -1 9 0
3 6 -1 0
9 -2 8 0
10 -4 -6 0
-2 -4 8 0
9 -8 -10 0
10 -8 -3 0
-1 -6 -4 0
-1 -10 -3 0
-2 10 -5 0
-4 9 -2 0
3 10 -5 0
10 -8 -1 0
-5 -4 -10 0
4 -1 10 0
-7 -3 -10 0
5 1 -10 0
-2 4 -6 0
-1 -4 -9 0
-7 10 5 0
-8 7 -3 0
-7 -6 -4 0
3 10 1 0
-7 4 -3 0
-1 -9 4 0
-10 2 -5 0
1 10 -2 0
-10 7 -1 0
3 -4 -8 0
10 -5 -3 0
5 -3 -7 0
9 -7 -2 0
-9 -5 -8 0
7 -4 3 0
